start_domain = 7;
target_domain = 3;
vnflist_size = 7;
vnflist = [10,3,4,2,2,4,10];
vnf_arcs = [|1,2|2,3|3,4|4,5|5,6|6,7|];
proximity_to_source = [0,0,1,1,0,0,0];
proximity_to_destination = [0,0,0,0,1,1,0];
n_domain_constraints = 1;
domain_constraints = [|3,3,1,1|];
